% demand
num_movements = 19;
loading_factor = [1250, 1700, 1650, 850, 1300, 900, 1400, 1050, 800, 1550, 2000, 1850, 1900, 1250, 950, 1150, 1300, 1100, 1350];
pickup_time = [0, 0, 0, 0, 0, 0, 0, 0, 0, 2, 2, 2, 2, 4, 4, 4, 4, 6, 6];
delivery_time = [4, 2, 2, 2, 4, 2, 2, 5, 2, 3, 8, 4, 7, 8, 8, 8, 7, 8, 8];

% transporter definition
total_capacity = 11000;
num_decks = 4;
capacity = [3000, 3000, 1000, 4000];

% ways out of decks
num_ways_out = 2;
paths_out = array3d(decks, ways_out, decks, [
% ways out of deck d1
2, 4, 0, 0, 3, 4, 0, 0, 

% ways out of deck d2
4, 0, 0, 0, 0, 0, 0, 0,	

% ways out of deck d3
4, 0, 0, 0, 0, 0, 0, 0,	

% ways out of deck d4
0, 0, 0, 0,	0, 0, 0, 0,	

]);

